language ESSENCE' 1.0
letting mainRow be 4
letting mainCol be 4
letting topRows be 2
letting leftCols be 2
letting leftMatrix be [
[2, 0],
[3, 0],
[1, 1],
[1, 0],
]
letting topMatrix be [
[1, 1, 2, 3],
[0, 1, 0, 0],

]